Instance: E051-05e.dat
Class:  2
   50 --- number of customers (no depot)
   11 --- number of vehicles
   82 --- number of items
Capacity - height - width of vehicles
   160     40     20
Node - x - y - demand
    0    30.0    40.0     0.0
    1    37.0    52.0     7.0
    2    49.0    49.0    30.0
    3    52.0    64.0    16.0
    4    20.0    26.0     9.0
    5    40.0    30.0    21.0
    6    21.0    47.0    15.0
    7    17.0    63.0    19.0
    8    31.0    62.0    23.0
    9    52.0    33.0    11.0
   10    51.0    21.0     5.0
   11    42.0    41.0    19.0
   12    31.0    32.0    29.0
   13     5.0    25.0    23.0
   14    12.0    42.0    21.0
   15    36.0    16.0    10.0
   16    52.0    41.0    15.0
   17    27.0    23.0     3.0
   18    17.0    33.0    41.0
   19    13.0    13.0     9.0
   20    57.0    58.0    28.0
   21    62.0    42.0     8.0
   22    42.0    57.0     8.0
   23    16.0    57.0    16.0
   24     8.0    52.0    10.0
   25     7.0    38.0    28.0
   26    27.0    68.0     7.0
   27    30.0    48.0    15.0
   28    43.0    67.0    14.0
   29    58.0    48.0     6.0
   30    58.0    27.0    19.0
   31    37.0    69.0    11.0
   32    38.0    46.0    12.0
   33    46.0    10.0    23.0
   34    61.0    33.0    26.0
   35    62.0    63.0    17.0
   36    63.0    69.0     6.0
   37    32.0    22.0     9.0
   38    45.0    35.0    15.0
   39    59.0    15.0    14.0
   40     5.0     6.0     7.0
   41    10.0    17.0    27.0
   42    21.0    10.0    13.0
   43     5.0    64.0    11.0
   44    30.0    15.0    16.0
   45    39.0    10.0    10.0
   46    32.0    39.0     5.0
   47    25.0    32.0    25.0
   48    25.0    55.0    17.0
   49    48.0    28.0    18.0
   50    56.0    37.0    10.0
Node - number of items - h - w for each item
    0   0
    1   2   11    9   15    5
    2   1    7   16
    3   2   17    5   10    4
    4   1   19    6
    5   2   20    6   24    2
    6   2    7   11   16    9
    7   2   15    9   34    3
    8   2    4   17   26    3
    9   2    6   12   30    4
   10   2    5    9   14    6
   11   2    5   16   29    4
   12   1    7   17
   13   1   30    2
   14   2   15    9   25    4
   15   1    9   10
   16   1   16    9
   17   1    4   18
   18   2   12    8   33    4
   19   2   13    5   29    3
   20   2   32    3   16    3
   21   1   18    9
   22   1   20    7
   23   1    4   12
   24   2   11    8   10    4
   25   2   23    3   23    2
   26   2    6   14    6    8
   27   1    5   14
   28   2    7    9   10    6
   29   2    5   10   31    3
   30   2    7   12    9    7
   31   2   32    3   17    2
   32   1   34    3
   33   1    6   17
   34   2    7   16   11    7
   35   2    7   17    5   15
   36   1   17   10
   37   2   33    2   31    2
   38   2    5   12   25    3
   39   2   14    7   15    5
   40   2   26    4   23    2
   41   2    7   15    5   13
   42   2    5   14   21    3
   43   1   12    6
   44   2    5   11   14    7
   45   1    6    8
   46   2    6   12   13    4
   47   1   12    5
   48   1    5   11
   49   2    5   10    5    8
   50   2   17    5   27    3
